p cnf 463 1121
-48 1 0
-48 -2 0
48 -1 2 0
-49 -2 0
-49 -48 0
49 2 48 0
-50 -2 0
-50 -4 0
50 2 4 0
-51 -2 0
-51 3 0
51 2 -3 0
-52 -48 0
-52 -51 0
52 48 51 0
-53 50 0
-53 -52 0
53 -50 52 0
-54 50 0
-54 -53 0
54 -50 53 0
-55 49 0
-55 -54 0
55 -49 54 0
-56 49 0
-56 -55 0
56 -49 55 0
-57 49 0
-57 54 0
57 -49 -54 0
-58 -56 0
-58 57 0
58 56 -57 0
-59 5 0
-59 -49 0
59 -5 49 0
-60 57 0
-60 -59 0
60 -57 59 0
-61 -7 0
-61 50 0
61 7 -50 0
-62 56 0
-62 -57 0
62 -56 57 0
-63 53 0
-63 -62 0
63 -53 62 0
-64 6 0
-64 50 0
64 -6 -50 0
-65 -63 0
-65 -64 0
65 63 64 0
-66 61 0
-66 -65 0
66 -61 65 0
-67 61 0
-67 -66 0
67 -61 66 0
-68 60 0
-68 -67 0
68 -60 67 0
-69 56 0
-69 -68 0
69 -56 68 0
-70 57 0
-70 67 0
70 -57 -67 0
-71 -59 0
-71 70 0
71 59 -70 0
-72 57 0
-72 59 0
72 -57 -59 0
-73 -71 0
-73 -72 0
73 71 72 0
-74 -69 0
-74 -73 0
74 69 73 0
75 58 74 0
-76 8 0
-76 -57 0
76 -8 57 0
-77 -59 0
-77 -76 0
77 59 76 0
-78 -73 0
-78 77 0
78 73 -77 0
-79 -10 0
-79 61 0
79 10 -61 0
-80 69 0
-80 73 0
80 -69 -73 0
-81 -53 0
-81 -64 0
81 53 64 0
-82 61 0
-82 -81 0
82 -61 81 0
-83 -80 0
-83 82 0
83 80 -82 0
-84 9 0
-84 61 0
84 -9 -61 0
-85 -83 0
-85 -84 0
85 83 84 0
-86 79 0
-86 -85 0
86 -79 85 0
-87 79 0
-87 -86 0
87 -79 86 0
-88 78 0
-88 -87 0
88 -78 87 0
-89 69 0
-89 -88 0
89 -69 88 0
-90 61 0
-90 -64 0
90 -61 64 0
-91 57 0
-91 90 0
91 -57 -90 0
-92 50 0
-92 -51 0
92 -50 51 0
-93 49 0
-93 92 0
93 -49 -92 0
-94 -1 0
-94 -2 0
94 1 2 0
-95 -49 0
-95 -94 0
95 49 94 0
-96 93 0
-96 95 0
96 -93 -95 0
-97 -49 0
-97 95 0
97 49 -95 0
-98 49 0
-98 95 0
98 -49 -95 0
-99 -97 0
-99 -98 0
99 97 98 0
-100 49 0
-100 -56 0
100 -49 56 0
-101 99 0
-101 -100 0
101 -99 100 0
-102 -93 0
-102 -101 0
102 93 101 0
-103 -96 0
-103 -102 0
103 96 102 0
-104 91 0
-104 -103 0
104 -91 103 0
-105 56 0
-105 -69 0
105 -56 69 0
-106 56 0
-106 -103 0
106 -56 103 0
-107 -56 0
-107 -103 0
107 56 103 0
-108 -106 0
-108 -107 0
108 106 107 0
-109 -105 0
-109 108 0
109 105 -108 0
-110 -91 0
-110 -109 0
110 91 109 0
-111 -104 0
-111 -110 0
111 104 110 0
-112 -98 0
-112 -100 0
112 98 100 0
-113 -93 0
-113 -112 0
113 93 112 0
-114 -96 0
-114 -113 0
114 96 113 0
-115 -56 0
-115 -114 0
115 56 114 0
-116 -106 0
-116 -115 0
116 106 115 0
-117 -105 0
-117 116 0
117 105 -116 0
-118 -91 0
-118 -117 0
118 91 117 0
-119 -104 0
-119 -118 0
119 104 118 0
-120 111 0
-120 -119 0
120 -111 119 0
-121 91 0
-121 -114 0
121 -91 114 0
-122 56 0
-122 -114 0
122 -56 114 0
-123 -105 0
-123 -122 0
123 105 122 0
-124 -91 0
-124 -123 0
124 91 123 0
-125 -121 0
-125 -124 0
125 121 124 0
-126 120 0
-126 -125 0
126 -120 125 0
-127 -111 0
-127 126 0
127 111 -126 0
-128 77 0
-128 127 0
128 -77 -127 0
-129 -69 0
-129 128 0
129 69 -128 0
-130 -89 0
-130 -129 0
130 89 129 0
-131 -73 0
-131 87 0
131 73 -87 0
-132 77 0
-132 131 0
132 -77 -131 0
-133 -73 0
-133 -77 0
133 73 77 0
-134 -132 0
-134 -133 0
134 132 133 0
-135 130 0
-135 -134 0
135 -130 134 0
136 -75 135 0
-137 11 0
-137 73 0
137 -11 -73 0
-138 -12 0
-138 79 0
138 12 -79 0
-139 62 0
-139 79 0
139 -62 -79 0
-140 -138 0
-140 -139 0
140 138 139 0
-141 79 0
-141 140 0
141 -79 -140 0
-142 13 0
-142 141 0
142 -13 -141 0
-143 -137 0
-143 -142 0
143 137 142 0
-144 14 0
-144 -87 0
144 -14 87 0
-145 143 0
-145 -144 0
145 -143 144 0
-146 -58 0
-146 -62 0
146 58 62 0
-147 77 0
-147 146 0
147 -77 -146 0
-148 145 0
-148 147 0
148 -145 -147 0
-149 -134 0
-149 148 0
149 134 -148 0
-150 -13 0
-150 140 0
150 13 -140 0
-151 -129 0
-151 -130 0
151 129 130 0
-152 134 0
-152 151 0
152 -134 -151 0
-153 -82 0
-153 -84 0
153 82 84 0
-154 79 0
-154 -153 0
154 -79 153 0
-155 -152 0
-155 154 0
155 152 -154 0
-156 15 0
-156 79 0
156 -15 -79 0
-157 -155 0
-157 -156 0
157 155 156 0
-158 -150 0
-158 -157 0
158 150 157 0
-159 -150 0
-159 -158 0
159 150 158 0
-160 149 0
-160 -159 0
160 -149 159 0
-161 -130 0
-161 -160 0
161 130 160 0
-162 79 0
-162 -84 0
162 -79 84 0
-163 -73 0
-163 162 0
163 73 -162 0
-164 -119 0
-164 163 0
164 119 -163 0
-165 -69 0
-165 -125 0
165 69 125 0
-166 69 0
-166 -119 0
166 -69 119 0
-167 -165 0
-167 -166 0
167 165 166 0
-168 69 0
-168 130 0
168 -69 -130 0
-169 167 0
-169 -168 0
169 -167 168 0
-170 -163 0
-170 -169 0
170 163 169 0
-171 -164 0
-171 -170 0
171 164 170 0
-172 -111 0
-172 163 0
172 111 -163 0
-173 -69 0
-173 -111 0
173 69 111 0
-174 69 0
-174 -111 0
174 -69 111 0
-175 -173 0
-175 -174 0
175 173 174 0
-176 -168 0
-176 175 0
176 168 -175 0
-177 -163 0
-177 -176 0
177 163 176 0
-178 -172 0
-178 -177 0
178 172 177 0
-179 -171 0
-179 178 0
179 171 -178 0
-180 -125 0
-180 163 0
180 125 -163 0
-181 -111 0
-181 119 0
181 111 -119 0
-182 -120 0
-182 -181 0
182 120 181 0
-183 -69 0
-183 -182 0
183 69 182 0
-184 69 0
-184 -125 0
184 -69 125 0
-185 -183 0
-185 -184 0
185 183 184 0
-186 -168 0
-186 185 0
186 168 -185 0
-187 -163 0
-187 -186 0
187 163 186 0
-188 -180 0
-188 -187 0
188 180 187 0
-189 179 0
-189 -188 0
189 -179 188 0
-190 -69 0
-190 -119 0
190 69 119 0
-191 -174 0
-191 -190 0
191 174 190 0
-192 -168 0
-192 191 0
192 168 -191 0
-193 -163 0
-193 -192 0
193 163 192 0
-194 -172 0
-194 -193 0
194 172 193 0
-195 -178 0
-195 -194 0
195 178 194 0
-196 189 0
-196 195 0
196 -189 -195 0
-197 148 0
-197 196 0
197 -148 -196 0
-198 130 0
-198 197 0
198 -130 -197 0
-199 -161 0
-199 -198 0
199 161 198 0
-200 -134 0
-200 159 0
200 134 -159 0
-201 148 0
-201 200 0
201 -148 -200 0
-202 -134 0
-202 -148 0
202 134 148 0
-203 -201 0
-203 -202 0
203 201 202 0
-204 199 0
-204 -203 0
205 -136 204 0
-206 16 0
-206 134 0
206 -16 -134 0
-207 -17 0
-207 138 0
207 17 -138 0
-208 80 0
-208 -150 0
208 -80 150 0
-209 -207 0
-209 -208 0
209 207 208 0
-210 -150 0
-210 209 0
210 150 -209 0
-211 18 0
-211 210 0
211 -18 -210 0
-212 -206 0
-212 -211 0
212 206 211 0
-213 19 0
-213 -159 0
213 -19 159 0
-214 212 0
-214 -213 0
214 -212 213 0
-215 -74 0
-215 -80 0
215 74 80 0
-216 148 0
-216 215 0
216 -148 -215 0
-217 214 0
-217 216 0
217 -214 -216 0
-218 -203 0
-218 217 0
218 203 -217 0
-219 -18 0
-219 209 0
219 18 -209 0
-220 -154 0
-220 -156 0
220 154 156 0
-221 -150 0
-221 -220 0
221 150 220 0
-222 -129 0
-222 -198 0
222 129 198 0
-223 20 0
-223 94 0
223 -20 -94 0
-224 21 0
-224 -94 0
224 -21 94 0
-225 -223 0
-225 -224 0
225 223 224 0
-226 93 0
-226 -225 0
226 -93 225 0
-227 22 0
-227 -93 0
227 -22 93 0
-228 -226 0
-228 -227 0
228 226 227 0
-229 91 0
-229 -228 0
229 -91 228 0
-230 23 0
-230 -91 0
230 -23 91 0
-231 -229 0
-231 -230 0
231 229 230 0
-232 163 0
-232 -231 0
232 -163 231 0
-233 24 0
-233 -163 0
233 -24 163 0
-234 -232 0
-234 -233 0
234 232 233 0
-235 25 0
-235 94 0
235 -25 -94 0
-236 26 0
-236 -94 0
236 -26 94 0
-237 -235 0
-237 -236 0
237 235 236 0
-238 93 0
-238 -237 0
238 -93 237 0
-239 27 0
-239 -93 0
239 -27 93 0
-240 -238 0
-240 -239 0
240 238 239 0
-241 91 0
-241 -240 0
241 -91 240 0
-242 28 0
-242 -91 0
242 -28 91 0
-243 -241 0
-243 -242 0
243 241 242 0
-244 163 0
-244 -243 0
244 -163 243 0
-245 29 0
-245 -163 0
245 -29 163 0
-246 -244 0
-246 -245 0
246 244 245 0
-247 -234 0
-247 -246 0
247 234 246 0
-248 30 0
-248 94 0
248 -30 -94 0
-249 31 0
-249 -94 0
249 -31 94 0
-250 -248 0
-250 -249 0
250 248 249 0
-251 93 0
-251 -250 0
251 -93 250 0
-252 32 0
-252 -93 0
252 -32 93 0
-253 -251 0
-253 -252 0
253 251 252 0
-254 91 0
-254 -253 0
254 -91 253 0
-255 33 0
-255 -91 0
255 -33 91 0
-256 -254 0
-256 -255 0
256 254 255 0
-257 163 0
-257 -256 0
257 -163 256 0
-258 34 0
-258 -163 0
258 -34 163 0
-259 -257 0
-259 -258 0
259 257 258 0
-260 129 0
-260 -259 0
260 -129 259 0
-261 247 0
-261 260 0
261 -247 -260 0
-262 148 0
-262 261 0
262 -148 -261 0
-263 -222 0
-263 -262 0
263 222 262 0
-264 -199 0
-264 -263 0
264 199 263 0
-265 221 0
-265 261 0
265 -221 -261 0
-266 148 0
-266 265 0
266 -148 -265 0
-267 264 0
-267 -266 0
267 -264 266 0
-268 203 0
-268 267 0
268 -203 -267 0
-269 221 0
-269 -268 0
269 -221 268 0
-270 35 0
-270 -150 0
270 -35 150 0
-271 -269 0
-271 -270 0
271 269 270 0
-272 -219 0
-272 -271 0
272 219 271 0
-273 221 0
-273 266 0
273 -221 -266 0
-274 -272 0
-274 -273 0
274 272 273 0
-275 -219 0
-275 274 0
275 219 -274 0
-276 218 0
-276 -275 0
276 -218 275 0
-277 -199 0
-277 -276 0
277 199 276 0
-278 -150 0
-278 -156 0
278 150 156 0
-279 -134 0
-279 278 0
279 134 -278 0
-280 -36 0
-280 279 0
280 36 -279 0
-281 -171 0
-281 280 0
281 171 -280 0
-282 130 0
-282 -188 0
282 -130 188 0
-283 -130 0
-283 -171 0
283 130 171 0
-284 -282 0
-284 -283 0
284 282 283 0
-285 -130 0
-285 199 0
285 130 -199 0
-286 284 0
-286 -285 0
286 -284 285 0
-287 -280 0
-287 -286 0
287 280 286 0
-288 -281 0
-288 -287 0
288 281 287 0
-289 -178 0
-289 280 0
289 178 -280 0
-290 130 0
-290 -178 0
290 -130 178 0
-291 -130 0
-291 -178 0
291 130 178 0
-292 -290 0
-292 -291 0
292 290 291 0
-293 -285 0
-293 292 0
293 285 -292 0
-294 -280 0
-294 -293 0
294 280 293 0
-295 -289 0
-295 -294 0
295 289 294 0
-296 -288 0
-296 295 0
296 288 -295 0
-297 -188 0
-297 280 0
297 188 -280 0
-298 171 0
-298 -178 0
298 -171 178 0
-299 -179 0
-299 -298 0
299 179 298 0
-300 130 0
-300 -299 0
300 -130 299 0
-301 -130 0
-301 -188 0
301 130 188 0
-302 -300 0
-302 -301 0
302 300 301 0
-303 -285 0
-303 302 0
303 285 -302 0
-304 -280 0
-304 -303 0
304 280 303 0
-305 -297 0
-305 -304 0
305 297 304 0
-306 296 0
-306 -305 0
306 -296 305 0
-307 -194 0
-307 280 0
307 194 -280 0
-308 130 0
-308 -171 0
308 -130 171 0
-309 -130 0
-309 -194 0
309 130 194 0
-310 -308 0
-310 -309 0
310 308 309 0
-311 -285 0
-311 310 0
311 285 -310 0
-312 -280 0
-312 -311 0
312 280 311 0
-313 -307 0
-313 -312 0
313 307 312 0
-314 130 0
-314 -194 0
314 -130 194 0
-315 -291 0
-315 -314 0
315 291 314 0
-316 -285 0
-316 315 0
316 285 -315 0
-317 -280 0
-317 -316 0
317 280 316 0
-318 -289 0
-318 -317 0
318 289 317 0
-319 -313 0
-319 -318 0
319 313 318 0
-320 306 0
-320 319 0
320 -306 -319 0
-321 217 0
-321 320 0
321 -217 -320 0
-322 199 0
-322 321 0
322 -199 -321 0
-323 -277 0
-323 -322 0
323 277 322 0
-324 -203 0
-324 275 0
324 203 -275 0
-325 217 0
-325 324 0
325 -217 -324 0
-326 -203 0
-326 -217 0
326 203 217 0
-327 -325 0
-327 -326 0
327 325 326 0
-328 323 0
-328 -327 0
329 -205 328 0
-330 37 0
-330 203 0
330 -37 -203 0
-331 -38 0
-331 207 0
331 38 -207 0
-332 -130 0
-332 134 0
332 130 -134 0
-333 -219 0
-333 332 0
333 219 -332 0
-334 -331 0
-334 -333 0
334 331 333 0
-335 -219 0
-335 334 0
335 219 -334 0
-336 39 0
-336 335 0
336 -39 -335 0
-337 -330 0
-337 -336 0
337 330 336 0
-338 40 0
-338 -275 0
338 -40 275 0
-339 337 0
-339 -338 0
339 -337 338 0
-340 -135 0
-340 -332 0
340 135 332 0
-341 -129 0
-341 -340 0
341 129 340 0
-342 129 0
-342 340 0
342 -129 -340 0
-343 -341 0
-343 -342 0
343 341 342 0
-344 217 0
-344 343 0
344 -217 -343 0
-345 339 0
-345 344 0
345 -339 -344 0
-346 -327 0
-346 345 0
-347 -39 0
-347 334 0
347 39 -334 0
-348 -221 0
-348 -270 0
348 221 270 0
-349 -219 0
-349 -348 0
349 219 348 0
-350 -273 0
-350 -349 0
350 273 349 0
-351 -263 0
-351 -322 0
351 263 322 0
-352 -234 0
-352 280 0
352 234 -280 0
-353 41 0
-353 -280 0
353 -41 280 0
-354 -352 0
-354 -353 0
354 352 353 0
-355 -246 0
-355 280 0
355 246 -280 0
-356 42 0
-356 -280 0
356 -42 280 0
-357 -355 0
-357 -356 0
357 355 356 0
-358 -354 0
-358 -357 0
358 354 357 0
-359 -259 0
-359 280 0
359 259 -280 0
-360 43 0
-360 -280 0
360 -43 280 0
-361 -359 0
-361 -360 0
361 359 360 0
-362 263 0
-362 -361 0
362 -263 361 0
-363 358 0
-363 362 0
363 -358 -362 0
-364 217 0
-364 363 0
364 -217 -363 0
-365 -351 0
-365 -364 0
365 351 364 0
-366 -323 0
-366 -365 0
366 323 365 0
-367 -350 0
-367 363 0
367 350 -363 0
-368 217 0
-368 367 0
368 -217 -367 0
-369 -266 0
-369 -368 0
369 266 368 0
-370 366 0
-370 369 0
370 -366 -369 0
-371 327 0
-371 370 0
371 -327 -370 0
-372 -350 0
-372 -371 0
372 350 371 0
-373 44 0
-373 -219 0
373 -44 219 0
-374 -372 0
-374 -373 0
374 372 373 0
-375 -347 0
-375 -374 0
375 347 374 0
-376 -350 0
-376 -369 0
376 350 369 0
-377 -375 0
-377 -376 0
377 375 376 0
-378 -347 0
-378 377 0
378 347 -377 0
-379 346 0
-379 -378 0
380 323 379 0
-381 -219 0
-381 -270 0
381 219 270 0
-382 -203 0
-382 381 0
382 203 -381 0
-383 -36 0
-383 -45 0
383 36 45 0
-384 382 0
-384 383 0
384 -382 -383 0
385 288 -384 0
386 -199 305 0
387 199 288 0
-388 -386 0
-388 -387 0
-389 -199 0
-389 323 0
389 199 -323 0
-390 388 0
-390 -389 0
391 384 390 0
-392 -385 0
-392 -391 0
-393 -295 0
-393 384 0
-394 199 0
-394 -318 0
-395 -199 0
-395 -295 0
396 394 395 0
397 389 -396 0
-398 -384 0
-398 -397 0
399 393 398 0
400 392 -399 0
401 305 -384 0
402 -288 295 0
-403 -296 0
-403 -402 0
404 -199 403 0
405 199 305 0
-406 -404 0
-406 -405 0
-407 -389 0
-407 406 0
408 384 407 0
-409 -401 0
-409 -408 0
410 -400 409 0
411 313 -384 0
412 -199 288 0
413 199 313 0
-414 -412 0
-414 -413 0
-415 -389 0
-415 414 0
416 384 415 0
-417 -411 0
-417 -416 0
418 318 -384 0
419 -199 313 0
420 199 318 0
-421 -419 0
-421 -420 0
-422 -389 0
-422 421 0
423 384 422 0
-424 -418 0
-424 -423 0
425 417 424 0
426 -410 -425 0
427 -345 -426 0
428 -323 -427 0
-429 -380 0
-429 -428 0
-430 -221 0
-430 262 0
430 221 -262 0
-431 -266 0
-431 -430 0
431 266 430 0
-432 -280 0
-432 -431 0
432 280 431 0
433 -350 432 0
434 350 432 0
-435 -433 0
-435 -434 0
436 350 -432 0
-437 432 0
-437 -436 0
-438 435 0
-438 437 0
439 -350 -432 0
-440 -436 0
-440 -439 0
-441 -432 0
-441 440 0
-442 438 0
-442 441 0
-443 266 0
-443 -369 0
-444 442 0
-444 443 0
-445 -384 0
-445 444 0
446 -350 373 0
-447 -347 0
-447 -446 0
448 376 447 0
-449 445 0
-449 -448 0
450 46 -331 0
451 199 -203 0
452 443 -451 0
453 347 -452 0
-454 -450 0
-454 -453 0
-455 -47 0
-455 454 0
-456 449 0
-456 455 0
-457 -327 0
-457 378 0
458 456 457 0
-459 345 0
-459 -458 0
-460 -327 0
-460 -345 0
461 459 460 0
-462 429 0
-462 -461 0
463 -329 462 0
-463 0
